Version identifier: 20.1.0.0 | 2020-11-10 | 9bedb6d68
Tried aggregator 2 times.
MIP Presolve eliminated 1743 rows and 991 columns.
MIP Presolve modified 3404 coefficients.
Aggregator did 186 substitutions.
Reduced MIP has 1477 rows, 1230 columns, and 4705 nonzeros.
Reduced MIP has 296 binaries, 934 generals, 0 SOSs, and 0 indicators.
Presolve time = 0.02 sec. (7.74 ticks)
Found incumbent of value 81.000000 after 0.03 sec. (13.12 ticks)
Probing fixed 40 vars, tightened 315 bounds.
Probing time = 0.00 sec. (1.77 ticks)
Tried aggregator 1 time.
Detecting symmetries...
MIP Presolve eliminated 600 rows and 40 columns.
MIP Presolve modified 80 coefficients.
Reduced MIP has 877 rows, 1190 columns, and 2865 nonzeros.
Reduced MIP has 335 binaries, 855 generals, 0 SOSs, and 0 indicators.
Presolve time = 0.01 sec. (3.47 ticks)
Probing time = 0.00 sec. (0.22 ticks)
Clique table members: 1.
MIP emphasis: balance optimality and feasibility.
MIP search method: dynamic search.
Parallel mode: deterministic, using up to 24 threads.
Root relaxation solution time = 0.01 sec. (2.84 ticks)

        Nodes                                         Cuts/
   Node  Left     Objective  IInf  Best Integer    Best Bound    ItCnt     Gap

*     0+    0                           81.0000        0.0000           100.00%
      0     0        0.0000    45       81.0000        0.0000      257  100.00%
      0     0        1.6250    48       81.0000     Cuts: 205      384   97.99%
*     0+    0                           15.0000        1.6250            89.17%
      0     0        2.1111   218       15.0000      Cuts: 76      510   85.93%
      0     0        3.0000    51       15.0000      Cuts: 72      551   80.00%
      0     0        3.0000   182       15.0000      Cuts: 27      623   80.00%
      0     0        3.0000    37       15.0000       Cuts: 3      628   80.00%
      0     0        3.0000    77       15.0000      Cuts: 50      664   80.00%
*     0+    0                           10.0000        3.0000            70.00%
      0     0        cutoff             10.0000       10.0000      664    0.00%
Elapsed time = 0.26 sec. (137.06 ticks, tree = 0.01 MB, solutions = 3)

Implied bound cuts applied:  42
Mixed integer rounding cuts applied:  8
Zero-half cuts applied:  109
Lift and project cuts applied:  1
Gomory fractional cuts applied:  25

Root node processing (before b&c):
  Real time             =    0.26 sec. (137.18 ticks)
Parallel b&c, 24 threads:
  Real time             =    0.00 sec. (0.00 ticks)
  Sync time (average)   =    0.00 sec.
  Wait time (average)   =    0.00 sec.
                          ------------
Total (root+branch&cut) =    0.26 sec. (137.18 ticks)

Solution status = Optimal
Solution LB = 10
Solution UB = 10
Runtime = 0.269137 seconds
	Command being timed: "/home/min/git_repos/CS598MEBProject/CNT-ILP/build/cnt -s 2 ./output/k6_n40/simC_c1_k6_n40_u1_s3_del02.input-right.cnp"
	User time (seconds): 1.88
	System time (seconds): 0.08
	Percent of CPU this job got: 671%
	Elapsed (wall clock) time (h:mm:ss or m:ss): 0:00.29
	Average shared text size (kbytes): 0
	Average unshared data size (kbytes): 0
	Average stack size (kbytes): 0
	Average total size (kbytes): 0
	Maximum resident set size (kbytes): 78192
	Average resident set size (kbytes): 0
	Major (requiring I/O) page faults: 0
	Minor (reclaiming a frame) page faults: 16583
	Voluntary context switches: 2622
	Involuntary context switches: 247
	Swaps: 0
	File system inputs: 0
	File system outputs: 16
	Socket messages sent: 0
	Socket messages received: 0
	Signals delivered: 0
	Page size (bytes): 4096
	Exit status: 0
